50
1491 497 4970 1008 497 560 560 3479 560 994 3479 3479 497 3976 672 336 497 1491 4473 3976 1120 112 672 224 896 2982 784 224 112 784 994 3479 4970 3479 4970 560 1120 3479 784 2485 896 1491 1988 784 4473 784 994 1491 1988 112 
4491 1497 14970 10008 1497 5560 5560 10479 5560 2994 10479 10479 1497 11976 6672 3336 1497 4491 13473 11976 11120 1112 6672 2224 8896 8982 7784 2224 1112 7784 2994 10479 14970 10479 14970 5560 11120 10479 7784 7485 8896 4491 5988 7784 13473 7784 2994 4491 5988 1112 
42932
